3	25
194	909	779	90	813	171	562	25	131	313	873	213	769	192	339	83	519	279	264	16	36	501	867	744	255	
282	883	627	14	363	384	306	116	953	670	686	792	142	286	497	747	950	302	490	545	246	274	661	23	859	
2017	2017	2017	
